\Problem name: compact

Minimize
OBJROW: C
Subject To
ord(0,1):  - x(0,1) + x(0,2) >= 7
ord(0,2):  x(0,0) - x(0,2) >= 7
ord(1,1):  x(1,0) - x(1,1) >= 4
ord(1,2):  - x(1,0) + x(1,2) >= 3
ord(2,1):  - x(2,1) + x(2,2) >= 7
ord(2,2):  x(2,0) - x(2,2) >= 6
triangle2(0,1,0):  y(0,1,0) + y(1,0,0) = 1
triangle2(0,1,1):  y(0,1,1) + y(1,0,1) = 1
triangle2(0,1,2):  y(0,1,2) + y(1,0,2) = 1
triangle2(0,2,0):  y(0,2,0) + y(2,0,0) = 1
triangle2(0,2,1):  y(0,2,1) + y(2,0,1) = 1
triangle2(0,2,2):  y(0,2,2) + y(2,0,2) = 1
triangle2(1,2,0):  y(1,2,0) + y(2,1,0) = 1
triangle2(1,2,1):  y(1,2,1) + y(2,1,1) = 1
triangle2(1,2,2):  y(1,2,2) + y(2,1,2) = 1
MCLinV(0,1,0):  - x(0,0) + v(0,1,0)p - v(0,1,0)n + x(1,0) = -3
MCLinV(1,0,0):  x(0,0) + v(1,0,0)p - v(1,0,0)n - x(1,0) = -1
MCLin1(0,1,0):  u(0,1,0)p - u(0,1,0)n >= 0
MCLin2(0,1,0):  23 y(1,0,0) + u(0,1,0)p - u(0,1,0)n >= 0
MCLin3(0,1,0):  -36 y(1,0,0) - v(0,1,0)p + v(0,1,0)n + u(0,1,0)p - u(0,1,0)n >= -36
MCLin4(0,1,0):  -36 y(1,0,0) + u(0,1,0)p - u(0,1,0)n <= 0
MCLin5(0,1,0):  23 y(1,0,0) - v(0,1,0)p + v(0,1,0)n + u(0,1,0)p - u(0,1,0)n <= 23
MCLin6(1,0,0):  u(1,0,0)p - u(1,0,0)n >= 0
MCLin7(1,0,0):  40 y(0,1,0) + u(1,0,0)p - u(1,0,0)n >= 0
MCLin8(1,0,0):  -19 y(0,1,0) - v(1,0,0)p + v(1,0,0)n + u(1,0,0)p - u(1,0,0)n >= -19
MCLin9(1,0,0):  -19 y(0,1,0) + u(1,0,0)p - u(1,0,0)n <= 0
MCLin10(1,0,0):  40 y(0,1,0) - v(1,0,0)p + v(1,0,0)n + u(1,0,0)p - u(1,0,0)n <= 40
MCLinV(0,1,1):  - x(0,1) + v(0,1,1)p - v(0,1,1)n + x(1,1) = -4
MCLinV(1,0,1):  x(0,1) + v(1,0,1)p - v(1,0,1)n - x(1,1) = -7
MCLin1(0,1,1):  u(0,1,1)p - u(0,1,1)n >= 0
MCLin2(0,1,1):  34 y(1,0,1) + u(0,1,1)p - u(0,1,1)n >= 0
MCLin3(0,1,1):  -25 y(1,0,1) - v(0,1,1)p + v(0,1,1)n + u(0,1,1)p - u(0,1,1)n >= -25
MCLin4(0,1,1):  -25 y(1,0,1) + u(0,1,1)p - u(0,1,1)n <= 0
MCLin5(0,1,1):  34 y(1,0,1) - v(0,1,1)p + v(0,1,1)n + u(0,1,1)p - u(0,1,1)n <= 34
MCLin6(1,0,1):  u(1,0,1)p - u(1,0,1)n >= 0
MCLin7(1,0,1):  36 y(0,1,1) + u(1,0,1)p - u(1,0,1)n >= 0
MCLin8(1,0,1):  -23 y(0,1,1) - v(1,0,1)p + v(1,0,1)n + u(1,0,1)p - u(1,0,1)n >= -23
MCLin9(1,0,1):  -23 y(0,1,1) + u(1,0,1)p - u(1,0,1)n <= 0
MCLin10(1,0,1):  36 y(0,1,1) - v(1,0,1)p + v(1,0,1)n + u(1,0,1)p - u(1,0,1)n <= 36
MCLinV(0,1,2):  - x(0,2) + v(0,1,2)p - v(0,1,2)n + x(1,2) = -7
MCLinV(1,0,2):  x(0,2) + v(1,0,2)p - v(1,0,2)n - x(1,2) = -7
MCLin1(0,1,2):  u(0,1,2)p - u(0,1,2)n >= 0
MCLin2(0,1,2):  37 y(1,0,2) + u(0,1,2)p - u(0,1,2)n >= 0
MCLin3(0,1,2):  -22 y(1,0,2) - v(0,1,2)p + v(0,1,2)n + u(0,1,2)p - u(0,1,2)n >= -22
MCLin4(0,1,2):  -22 y(1,0,2) + u(0,1,2)p - u(0,1,2)n <= 0
MCLin5(0,1,2):  37 y(1,0,2) - v(0,1,2)p + v(0,1,2)n + u(0,1,2)p - u(0,1,2)n <= 37
MCLin6(1,0,2):  u(1,0,2)p - u(1,0,2)n >= 0
MCLin7(1,0,2):  36 y(0,1,2) + u(1,0,2)p - u(1,0,2)n >= 0
MCLin8(1,0,2):  -23 y(0,1,2) - v(1,0,2)p + v(1,0,2)n + u(1,0,2)p - u(1,0,2)n >= -23
MCLin9(1,0,2):  -23 y(0,1,2) + u(1,0,2)p - u(1,0,2)n <= 0
MCLin10(1,0,2):  36 y(0,1,2) - v(1,0,2)p + v(1,0,2)n + u(1,0,2)p - u(1,0,2)n <= 36
MCLinV(0,2,0):  - x(0,0) + v(0,2,0)p - v(0,2,0)n + x(2,0) = -2
MCLinV(2,0,0):  x(0,0) + v(2,0,0)p - v(2,0,0)n - x(2,0) = -1
MCLin1(0,2,0):  u(0,2,0)p - u(0,2,0)n >= 0
MCLin2(0,2,0):  30 y(2,0,0) + u(0,2,0)p - u(0,2,0)n >= 0
MCLin3(0,2,0):  -28 y(2,0,0) - v(0,2,0)p + v(0,2,0)n + u(0,2,0)p - u(0,2,0)n >= -28
MCLin4(0,2,0):  -28 y(2,0,0) + u(0,2,0)p - u(0,2,0)n <= 0
MCLin5(0,2,0):  30 y(2,0,0) - v(0,2,0)p + v(0,2,0)n + u(0,2,0)p - u(0,2,0)n <= 30
MCLin6(2,0,0):  u(2,0,0)p - u(2,0,0)n >= 0
MCLin7(2,0,0):  31 y(0,2,0) + u(2,0,0)p - u(2,0,0)n >= 0
MCLin8(2,0,0):  -27 y(0,2,0) - v(2,0,0)p + v(2,0,0)n + u(2,0,0)p - u(2,0,0)n >= -27
MCLin9(2,0,0):  -27 y(0,2,0) + u(2,0,0)p - u(2,0,0)n <= 0
MCLin10(2,0,0):  31 y(0,2,0) - v(2,0,0)p + v(2,0,0)n + u(2,0,0)p - u(2,0,0)n <= 31
MCLinV(0,2,1):  - x(0,1) + v(0,2,1)p - v(0,2,1)n + x(2,1) = -7
MCLinV(2,0,1):  x(0,1) + v(2,0,1)p - v(2,0,1)n - x(2,1) = -7
MCLin1(0,2,1):  u(0,2,1)p - u(0,2,1)n >= 0
MCLin2(0,2,1):  36 y(2,0,1) + u(0,2,1)p - u(0,2,1)n >= 0
MCLin3(0,2,1):  -22 y(2,0,1) - v(0,2,1)p + v(0,2,1)n + u(0,2,1)p - u(0,2,1)n >= -22
MCLin4(0,2,1):  -22 y(2,0,1) + u(0,2,1)p - u(0,2,1)n <= 0
MCLin5(0,2,1):  36 y(2,0,1) - v(0,2,1)p + v(0,2,1)n + u(0,2,1)p - u(0,2,1)n <= 36
MCLin6(2,0,1):  u(2,0,1)p - u(2,0,1)n >= 0
MCLin7(2,0,1):  36 y(0,2,1) + u(2,0,1)p - u(2,0,1)n >= 0
MCLin8(2,0,1):  -22 y(0,2,1) - v(2,0,1)p + v(2,0,1)n + u(2,0,1)p - u(2,0,1)n >= -22
MCLin9(2,0,1):  -22 y(0,2,1) + u(2,0,1)p - u(2,0,1)n <= 0
MCLin10(2,0,1):  36 y(0,2,1) - v(2,0,1)p + v(2,0,1)n + u(2,0,1)p - u(2,0,1)n <= 36
MCLinV(0,2,2):  - x(0,2) + v(0,2,2)p - v(0,2,2)n + x(2,2) = -6
MCLinV(2,0,2):  x(0,2) + v(2,0,2)p - v(2,0,2)n - x(2,2) = -7
MCLin1(0,2,2):  u(0,2,2)p - u(0,2,2)n >= 0
MCLin2(0,2,2):  35 y(2,0,2) + u(0,2,2)p - u(0,2,2)n >= 0
MCLin3(0,2,2):  -23 y(2,0,2) - v(0,2,2)p + v(0,2,2)n + u(0,2,2)p - u(0,2,2)n >= -23
MCLin4(0,2,2):  -23 y(2,0,2) + u(0,2,2)p - u(0,2,2)n <= 0
MCLin5(0,2,2):  35 y(2,0,2) - v(0,2,2)p + v(0,2,2)n + u(0,2,2)p - u(0,2,2)n <= 35
MCLin6(2,0,2):  u(2,0,2)p - u(2,0,2)n >= 0
MCLin7(2,0,2):  36 y(0,2,2) + u(2,0,2)p - u(2,0,2)n >= 0
MCLin8(2,0,2):  -22 y(0,2,2) - v(2,0,2)p + v(2,0,2)n + u(2,0,2)p - u(2,0,2)n >= -22
MCLin9(2,0,2):  -22 y(0,2,2) + u(2,0,2)p - u(2,0,2)n <= 0
MCLin10(2,0,2):  36 y(0,2,2) - v(2,0,2)p + v(2,0,2)n + u(2,0,2)p - u(2,0,2)n <= 36
MCLinV(1,2,0):  - x(1,0) + v(1,2,0)p - v(1,2,0)n + x(2,0) = -2
MCLinV(2,1,0):  x(1,0) + v(2,1,0)p - v(2,1,0)n - x(2,0) = -3
MCLin1(1,2,0):  u(1,2,0)p - u(1,2,0)n >= 0
MCLin2(1,2,0):  40 y(2,1,0) + u(1,2,0)p - u(1,2,0)n >= 0
MCLin3(1,2,0):  -19 y(2,1,0) - v(1,2,0)p + v(1,2,0)n + u(1,2,0)p - u(1,2,0)n >= -19
MCLin4(1,2,0):  -19 y(2,1,0) + u(1,2,0)p - u(1,2,0)n <= 0
MCLin5(1,2,0):  40 y(2,1,0) - v(1,2,0)p + v(1,2,0)n + u(1,2,0)p - u(1,2,0)n <= 40
MCLin6(2,1,0):  u(2,1,0)p - u(2,1,0)n >= 0
MCLin7(2,1,0):  24 y(1,2,0) + u(2,1,0)p - u(2,1,0)n >= 0
MCLin8(2,1,0):  -35 y(1,2,0) - v(2,1,0)p + v(2,1,0)n + u(2,1,0)p - u(2,1,0)n >= -35
MCLin9(2,1,0):  -35 y(1,2,0) + u(2,1,0)p - u(2,1,0)n <= 0
MCLin10(2,1,0):  24 y(1,2,0) - v(2,1,0)p + v(2,1,0)n + u(2,1,0)p - u(2,1,0)n <= 24
MCLinV(1,2,1):  - x(1,1) + v(1,2,1)p - v(1,2,1)n + x(2,1) = -7
MCLinV(2,1,1):  x(1,1) + v(2,1,1)p - v(2,1,1)n - x(2,1) = -4
MCLin1(1,2,1):  u(1,2,1)p - u(1,2,1)n >= 0
MCLin2(1,2,1):  36 y(2,1,1) + u(1,2,1)p - u(1,2,1)n >= 0
MCLin3(1,2,1):  -23 y(2,1,1) - v(1,2,1)p + v(1,2,1)n + u(1,2,1)p - u(1,2,1)n >= -23
MCLin4(1,2,1):  -23 y(2,1,1) + u(1,2,1)p - u(1,2,1)n <= 0
MCLin5(1,2,1):  36 y(2,1,1) - v(1,2,1)p + v(1,2,1)n + u(1,2,1)p - u(1,2,1)n <= 36
MCLin6(2,1,1):  u(2,1,1)p - u(2,1,1)n >= 0
MCLin7(2,1,1):  34 y(1,2,1) + u(2,1,1)p - u(2,1,1)n >= 0
MCLin8(2,1,1):  -25 y(1,2,1) - v(2,1,1)p + v(2,1,1)n + u(2,1,1)p - u(2,1,1)n >= -25
MCLin9(2,1,1):  -25 y(1,2,1) + u(2,1,1)p - u(2,1,1)n <= 0
MCLin10(2,1,1):  34 y(1,2,1) - v(2,1,1)p + v(2,1,1)n + u(2,1,1)p - u(2,1,1)n <= 34
MCLinV(1,2,2):  - x(1,2) + v(1,2,2)p - v(1,2,2)n + x(2,2) = -6
MCLinV(2,1,2):  x(1,2) + v(2,1,2)p - v(2,1,2)n - x(2,2) = -7
MCLin1(1,2,2):  u(1,2,2)p - u(1,2,2)n >= 0
MCLin2(1,2,2):  35 y(2,1,2) + u(1,2,2)p - u(1,2,2)n >= 0
MCLin3(1,2,2):  -24 y(2,1,2) - v(1,2,2)p + v(1,2,2)n + u(1,2,2)p - u(1,2,2)n >= -24
MCLin4(1,2,2):  -24 y(2,1,2) + u(1,2,2)p - u(1,2,2)n <= 0
MCLin5(1,2,2):  35 y(2,1,2) - v(1,2,2)p + v(1,2,2)n + u(1,2,2)p - u(1,2,2)n <= 35
MCLin6(2,1,2):  u(2,1,2)p - u(2,1,2)n >= 0
MCLin7(2,1,2):  37 y(1,2,2) + u(2,1,2)p - u(2,1,2)n >= 0
MCLin8(2,1,2):  -22 y(1,2,2) - v(2,1,2)p + v(2,1,2)n + u(2,1,2)p - u(2,1,2)n >= -22
MCLin9(2,1,2):  -22 y(1,2,2) + u(2,1,2)p - u(2,1,2)n <= 0
MCLin10(2,1,2):  37 y(1,2,2) - v(2,1,2)p + v(2,1,2)n + u(2,1,2)p - u(2,1,2)n <= 37
makespan(0):  C - x(0,0) >= 1
makespan(1):  C - x(1,2) >= 7
makespan(2):  C - x(2,0) >= 2
cut_clique_1(0,1):  0.46453 x(0,1) + 0.17133 x(2,1) >= 1
cut_clique_1(1,1):  0.46453 x(0,1) + 0.18161 x(2,1) >= 1
cut_clique_1(2,1):  0.48311 x(0,1) + 0.18161 x(2,1) >= 1
cut_clique_1(3,1):  0.45412 x(0,1) + 0.18161 x(2,1) >= 1
cut_clique_1(4,1):  0.99706 x(0,1) + 0.99892 x(1,1) + 0.99748 x(2,1) >= 1
cut_clique_1(5,1):  0.45412 x(0,1) + 0.48155 x(2,1) >= 1
cut_clique_1(6,1):  0.45412 x(0,1) + 0.52489 x(2,1) >= 1
cut_clique_1(7,1):  0.45412 x(0,1) + 0.56163 x(2,1) >= 1
cut_clique_1(8,1):  0.45412 x(0,1) + 0.58971 x(2,1) >= 1
cut_clique_1(9,1):  0.45412 x(0,1) + 0.63689 x(2,1) >= 1
cut_clique_1(10,1):  0.46774 x(0,1) + 0.63689 x(2,1) >= 1
cut_clique_1(11,1):  0.46774 x(0,1) + 0.66236 x(2,1) >= 1
cut_clique_1(12,1):  0.46774 x(0,1) + 0.69548 x(2,1) >= 1
cut_clique_1(13,1):  0.49113 x(0,1) + 0.69548 x(2,1) >= 1
cut_clique_1(14,1):  0.49604 x(0,1) + 0.69548 x(2,1) >= 1
cut_clique_1(15,1):  0.49604 x(0,1) + 0.55381 x(1,1) + 0.69548 x(2,1) >= 1
cut_clique_1(16,1):  0.49604 x(0,1) + 0.55381 x(1,1) + 0.73026 x(2,1) >= 1
cut_clique_1(17,1):  0.49604 x(0,1) + 0.55381 x(1,1) + 0.73756 x(2,1) >= 1
cut_clique_1(18,1):  0.49604 x(0,1) + 0.55381 x(1,1) + 0.79656 x(2,1) >= 1
cut_clique_1(19,1):  0.48612 x(0,1) + 0.55381 x(1,1) + 0.79656 x(2,1) >= 1
cut_clique_1(20,1):  0.47640 x(0,1) + 0.55381 x(1,1) + 0.79656 x(2,1) >= 1
cut_clique_1(21,1):  0.47640 x(0,1) + 0.59811 x(1,1) + 0.79656 x(2,1) >= 1
cut_clique_1(22,1):  0.47640 x(0,1) + 0.64596 x(1,1) + 0.79656 x(2,1) >= 1
cut_clique_1(23,1):  0.47640 x(0,1) + 0.64596 x(1,1) + 0.85232 x(2,1) >= 1
cut_clique_1(24,1):  0.50498 x(0,1) + 0.64596 x(1,1) + 0.85232 x(2,1) >= 1
cut_clique_1(25,1):  0.50498 x(0,1) + 0.69118 x(1,1) + 0.85232 x(2,1) >= 1
cut_clique_1(26,1):  0.56961 x(0,1) + 0.69118 x(1,1) + 0.85232 x(2,1) >= 1
cut_clique_1(27,1):  0.61518 x(0,1) + 0.69118 x(1,1) + 0.85232 x(2,1) >= 1
cut_clique_1(28,1):  0.61518 x(0,1) + 0.71191 x(1,1) + 0.85232 x(2,1) >= 1
cut_clique_1(29,1):  0.65824 x(0,1) + 0.71191 x(1,1) + 0.85232 x(2,1) >= 1
cut_clique_1(30,1):  0.65824 x(0,1) + 0.71191 x(1,1) + 0.86937 x(2,1) >= 1
cut_clique_1(31,1):  0.71090 x(0,1) + 0.71191 x(1,1) + 0.86937 x(2,1) >= 1
cut_clique_1(32,1):  0.71090 x(0,1) + 0.71191 x(1,1) + 0.91284 x(2,1) >= 1
cut_clique_1(33,1):  0.77488 x(0,1) + 0.71191 x(1,1) + 0.91284 x(2,1) >= 1
cut_clique_1(34,1):  0.77488 x(0,1) + 0.71903 x(1,1) + 0.91284 x(2,1) >= 1
cut_clique_1(35,1):  0.77488 x(0,1) + 0.71903 x(1,1) + 0.94022 x(2,1) >= 1
cut_clique_1(36,1):  0.77488 x(0,1) + 0.78375 x(1,1) + 0.94022 x(2,1) >= 1
cut_clique_1(37,1):  0.77488 x(0,1) + 0.79942 x(1,1) + 0.94022 x(2,1) >= 1
cut_clique_1(38,1):  0.77488 x(0,1) + 0.79942 x(1,1) + 0.96843 x(2,1) >= 1
cut_clique_1(39,1):  0.77488 x(0,1) + 0.84739 x(1,1) + 0.96843 x(2,1) >= 1
cut_clique_1(40,1):  0.79813 x(0,1) + 0.84739 x(1,1) + 0.96843 x(2,1) >= 1
cut_clique_1(41,1):  0.79813 x(0,1) + 0.84739 x(1,1) + 0.99748 x(2,1) >= 1
cut_clique_1(42,1):  0.79813 x(0,1) + 0.90670 x(1,1) + 0.99748 x(2,1) >= 1
cut_clique_1(43,1):  0.79813 x(0,1) + 0.91577 x(1,1) + 0.99748 x(2,1) >= 1
cut_clique_1(44,1):  0.79813 x(0,1) + 0.92493 x(1,1) + 0.99748 x(2,1) >= 1
cut_clique_1(45,1):  0.79813 x(0,1) + 0.99892 x(1,1) + 0.99748 x(2,1) >= 1
cut_clique_1(46,1):  0.86198 x(0,1) + 0.99892 x(1,1) + 0.99748 x(2,1) >= 1
cut_clique_1(47,1):  0.93956 x(0,1) + 0.99892 x(1,1) + 0.99748 x(2,1) >= 1
cut_clique_1(48,1):  0.95835 x(0,1) + 0.99892 x(1,1) + 0.99748 x(2,1) >= 1
cut_clique_1(49,1):  0.97751 x(0,1) + 0.99892 x(1,1) + 0.99748 x(2,1) >= 1
cut_clique_1(0,2):  0.01243 x(1,2) + 0.12971 x(2,2) >= 1
cut_clique_1(1,2):  0.01243 x(1,2) + 0.12842 x(2,2) >= 1
cut_clique_1(2,2):  0.01243 x(1,2) + 0.12456 x(2,2) >= 1
cut_clique_1(3,2):  0.01156 x(1,2) + 0.12456 x(2,2) >= 1
cut_clique_1(4,2):  0.01075 x(1,2) + 0.12456 x(2,2) >= 1
cut_clique_1(5,2):  0.01021 x(1,2) + 0.12456 x(2,2) >= 1
cut_clique_1(6,2):  0.01001 x(1,2) + 0.12456 x(2,2) >= 1
cut_clique_1(7,2):  0.00991 x(1,2) + 0.12456 x(2,2) >= 1
cut_clique_2(0,1):  0.11644 x(0,1) + 0.75867 x(1,1) + 0.08551 x(2,1) >= 1
cut_clique_2(1,1):  0.11644 x(0,1) + 0.78901 x(1,1) + 0.08551 x(2,1) >= 1
cut_clique_2(2,1):  0.11644 x(0,1) + 0.75745 x(1,1) + 0.08551 x(2,1) >= 1
cut_clique_2(3,1):  0.10946 x(0,1) + 0.75745 x(1,1) + 0.08551 x(2,1) >= 1
cut_clique_2(4,1):  0.11603 x(0,1) + 0.75745 x(1,1) + 0.08551 x(2,1) >= 1
cut_clique_2(5,1):  0.11603 x(0,1) + 0.81047 x(1,1) + 0.08551 x(2,1) >= 1
cut_clique_2(6,1):  0.11138 x(0,1) + 0.81047 x(1,1) + 0.08551 x(2,1) >= 1
cut_clique_2(7,1):  0.11138 x(0,1) + 0.76995 x(1,1) + 0.08551 x(2,1) >= 1
cut_clique_2(8,1):  0.11138 x(0,1) + 0.80075 x(1,1) + 0.08551 x(2,1) >= 1
cut_clique_2(9,1):  0.11138 x(0,1) + 0.81676 x(1,1) + 0.08551 x(2,1) >= 1
cut_clique_2(10,1):  0.11138 x(0,1) + 0.81676 x(1,1) + 0.09235 x(2,1) >= 1
cut_clique_2(11,1):  0.11138 x(0,1) + 0.73509 x(1,1) + 0.09235 x(2,1) >= 1
cut_clique_2(12,1):  0.11138 x(0,1) + 0.68363 x(1,1) + 0.09235 x(2,1) >= 1
cut_clique_2(13,1):  0.10804 x(0,1) + 0.68363 x(1,1) + 0.09235 x(2,1) >= 1
cut_clique_2(14,1):  0.10804 x(0,1) + 0.68363 x(1,1) + 0.09789 x(2,1) >= 1
cut_clique_2(15,1):  0.10804 x(0,1) + 0.68363 x(1,1) + 0.09104 x(2,1) >= 1
cut_clique_2(16,1):  0.11128 x(0,1) + 0.68363 x(1,1) + 0.09104 x(2,1) >= 1
cut_clique_2(17,1):  0.11907 x(0,1) + 0.68363 x(1,1) + 0.09104 x(2,1) >= 1
cut_clique_2(18,1):  0.11907 x(0,1) + 0.68363 x(1,1) + 0.08557 x(2,1) >= 1
cut_clique_2(19,1):  0.11907 x(0,1) + 0.68363 x(1,1) + 0.09413 x(2,1) >= 1
cut_clique_2(20,1):  0.12146 x(0,1) + 0.68363 x(1,1) + 0.09413 x(2,1) >= 1
cut_clique_2(21,1):  0.12146 x(0,1) + 0.61527 x(1,1) + 0.09413 x(2,1) >= 1
cut_clique_2(22,1):  0.75508 x(1,1) + 0.25102 x(2,1) >= 1
cut_clique_2(23,1):  0.72116 x(1,1) + 0.25102 x(2,1) >= 1
cut_clique_2(24,1):  0.70128 x(1,1) + 0.25102 x(2,1) >= 1
cut_clique_2(25,1):  0.86221 x(1,1) + 0.25102 x(2,1) >= 1
cut_clique_2(26,1):  0.64794 x(1,1) + 0.25102 x(2,1) >= 1
cut_clique_2(27,1):  0.92008 x(1,1) + 0.25102 x(2,1) >= 1
cut_clique_2(28,1):  0.81548 x(1,1) + 0.25102 x(2,1) >= 1
cut_clique_2(29,1):  0.85989 x(1,1) + 0.25102 x(2,1) >= 1
cut_clique_2(30,1):  0.63816 x(1,1) + 0.25102 x(2,1) >= 1
cut_clique_2(31,1):  0.93453 x(1,1) + 0.25102 x(2,1) >= 1
cut_clique_2(32,1):  0.79102 x(1,1) + 0.25102 x(2,1) >= 1
cut_clique_2(33,1):  0.88780 x(1,1) + 0.25102 x(2,1) >= 1
cut_clique_2(34,1):  0.93219 x(1,1) + 0.25102 x(2,1) >= 1
cut_clique_2(35,1):  0.83897 x(1,1) + 0.25102 x(2,1) >= 1
cut_clique_2(36,1):  0.99585 x(1,1) + 0.25102 x(2,1) >= 1
cut_clique_2(37,1):  0.75012 x(1,1) + 0.25102 x(2,1) >= 1
cut_clique_2(38,1):  0.82893 x(1,1) + 0.25102 x(2,1) >= 1
cut_clique_2(39,1):  0.82513 x(1,1) + 0.25102 x(2,1) >= 1
cut_clique_2(40,1):  0.94843 x(1,1) + 0.25102 x(2,1) >= 1
cut_clique_2(41,1):  0.64178 x(1,1) + 0.25102 x(2,1) >= 1
cut_clique_2(42,1):  0.99585 x(1,1) + 0.25051 x(2,1) >= 1
cut_clique_2(43,1):  0.66852 x(1,1) + 0.25102 x(2,1) >= 1
cut_clique_2(44,1):  0.75912 x(1,1) + 0.25102 x(2,1) >= 1
cut_clique_2(45,1):  0.64905 x(1,1) + 0.25102 x(2,1) >= 1
cut_clique_2(46,1):  0.82431 x(1,1) + 0.25102 x(2,1) >= 1
cut_clique_2(47,1):  0.74604 x(1,1) + 0.25102 x(2,1) >= 1
cut_clique_2(48,1):  0.92103 x(1,1) + 0.25102 x(2,1) >= 1
cut_clique_2(49,1):  0.95360 x(1,1) + 0.25102 x(2,1) >= 1
cut_clique_3(0,1):  0.36471 x(0,1) + 0.37098 x(1,1) >= 1
cut_clique_3(1,1):  0.36471 x(0,1) + 0.33389 x(1,1) >= 1
cut_clique_3(2,1):  0.35012 x(0,1) + 0.33389 x(1,1) >= 1
cut_clique_3(3,1):  0.32211 x(0,1) + 0.33389 x(1,1) >= 1
cut_clique_3(4,1):  0.32211 x(0,1) + 0.33722 x(1,1) >= 1
cut_clique_3(5,1):  0.29634 x(0,1) + 0.33722 x(1,1) >= 1
cut_clique_3(6,1):  0.29042 x(0,1) + 0.33722 x(1,1) >= 1
cut_clique_3(7,1):  0.28461 x(0,1) + 0.33722 x(1,1) >= 1
cut_clique_3(8,1):  0.28461 x(0,1) + 0.30687 x(1,1) >= 1
cut_clique_3(9,1):  0.27892 x(0,1) + 0.30687 x(1,1) >= 1
cut_clique_3(10,1):  0.27892 x(0,1) + 0.27619 x(1,1) >= 1
cut_clique_3(11,1):  0.27892 x(0,1) + 0.26790 x(1,1) >= 1
cut_clique_3(12,1):  0.27334 x(0,1) + 0.26790 x(1,1) >= 1
cut_clique_3(13,1):  0.27334 x(0,1) + 0.27326 x(1,1) >= 1
cut_clique_3(14,1):  0.27334 x(0,1) + 0.26506 x(1,1) >= 1
cut_clique_3(15,1):  0.27334 x(0,1) + 0.25181 x(1,1) >= 1
cut_clique_3(16,1):  0.27334 x(0,1) + 0.23418 x(1,1) >= 1
cut_clique_3(17,1):  0.27607 x(0,1) + 0.23418 x(1,1) >= 1
cut_clique_3(18,1):  0.27607 x(0,1) + 0.21545 x(1,1) >= 1
cut_clique_3(19,1):  0.27055 x(0,1) + 0.21545 x(1,1) >= 1
cut_clique_3(20,1):  0.27055 x(0,1) + 0.20467 x(1,1) >= 1
cut_clique_3(21,1):  0.27055 x(0,1) + 0.19035 x(1,1) >= 1
cut_clique_3(22,1):  0.27055 x(0,1) + 0.19225 x(1,1) >= 1
cut_clique_3(23,1):  0.25432 x(0,1) + 0.19225 x(1,1) >= 1
cut_clique_3(24,1):  0.25432 x(0,1) + 0.18456 x(1,1) >= 1
cut_clique_3(25,1):  0.25432 x(0,1) + 0.17718 x(1,1) >= 1
cut_clique_3(26,1):  0.25432 x(0,1) + 0.16655 x(1,1) >= 1
cut_clique_3(27,1):  0.25432 x(0,1) + 0.15989 x(1,1) >= 1
cut_clique_3(28,1):  0.25432 x(0,1) + 0.15189 x(1,1) >= 1
cut_clique_3(29,1):  0.25177 x(0,1) + 0.15189 x(1,1) >= 1
cut_clique_3(30,1):  0.25177 x(0,1) + 0.14733 x(1,1) >= 1
cut_clique_3(31,1):  0.25177 x(0,1) + 0.14439 x(1,1) >= 1
cut_clique_3(32,1):  0.25177 x(0,1) + 0.14294 x(1,1) >= 1
cut_clique_3(0,2):  0.04895 x(0,2) + 0.06324 x(2,2) >= 1
cut_clique_3(1,2):  0.04503 x(0,2) + 0.06324 x(2,2) >= 1
cut_clique_3(2,2):  0.04503 x(0,2) + 0.06071 x(2,2) >= 1
cut_clique_3(3,2):  0.04503 x(0,2) + 0.05950 x(2,2) >= 1
cut_clique_4(0,1):  0.25093 x(0,1) + 0.14317 x(1,1) >= 1
cut_clique_5(0,1):  0.22459 x(0,1) + 0.14365 x(2,1) >= 1
cut_clique_5(1,1):  0.20887 x(0,1) + 0.14365 x(2,1) >= 1
cut_clique_5(2,1):  0.19634 x(0,1) + 0.14365 x(2,1) >= 1
cut_clique_5(3,1):  0.18848 x(0,1) + 0.14365 x(2,1) >= 1
cut_clique_5(4,1):  0.17906 x(0,1) + 0.14365 x(2,1) >= 1
cut_clique_5(5,1):  0.17548 x(0,1) + 0.14365 x(2,1) >= 1
cut_clique_5(6,1):  0.17372 x(0,1) + 0.14365 x(2,1) >= 1
cut_clique_5(7,1):  0.17199 x(0,1) + 0.14365 x(2,1) >= 1
cut_clique_5(8,1):  0.15995 x(0,1) + 0.14365 x(2,1) >= 1
cut_clique_5(9,1):  0.14875 x(0,1) + 0.14365 x(2,1) >= 1
cut_clique_5(10,1):  0.14429 x(0,1) + 0.14365 x(2,1) >= 1
Bounds
 0 <= C <= 44
 14 <= x(0,0) <= 43
 0 <= y(0,1,0) <= 1
 0 <= y(1,0,0) <= 1
 0 <= v(0,1,0)p <= 36
 0 <= v(0,1,0)n <= 23
 0 <= v(1,0,0)p <= 19
 0 <= v(1,0,0)n <= 40
 0 <= u(0,1,0)p <= 440
 0 <= u(0,1,0)n <= 440
 0 <= u(1,0,0)p <= 440
 0 <= u(1,0,0)n <= 440
 0 <= y(0,2,0) <= 1
 0 <= y(2,0,0) <= 1
 0 <= v(0,2,0)p <= 28
 0 <= v(0,2,0)n <= 30
 0 <= v(2,0,0)p <= 27
 0 <= v(2,0,0)n <= 31
 0 <= u(0,2,0)p <= 440
 0 <= u(0,2,0)n <= 440
 0 <= u(2,0,0)p <= 440
 0 <= u(2,0,0)n <= 440
 4 <= x(1,0) <= 34
 0 <= y(1,2,0) <= 1
 0 <= y(2,1,0) <= 1
 0 <= v(1,2,0)p <= 19
 0 <= v(1,2,0)n <= 40
 0 <= v(2,1,0)p <= 35
 0 <= v(2,1,0)n <= 24
 0 <= u(1,2,0)p <= 440
 0 <= u(1,2,0)n <= 440
 0 <= u(2,1,0)p <= 440
 0 <= u(2,1,0)n <= 440
 13 <= x(2,0) <= 42
 0 <= x(0,1) <= 29
 0 <= y(0,1,1) <= 1
 0 <= y(1,0,1) <= 1
 0 <= v(0,1,1)p <= 25
 0 <= v(0,1,1)n <= 34
 0 <= v(1,0,1)p <= 23
 0 <= v(1,0,1)n <= 36
 0 <= u(0,1,1)p <= 440
 0 <= u(0,1,1)n <= 440
 0 <= u(1,0,1)p <= 440
 0 <= u(1,0,1)n <= 440
 0 <= y(0,2,1) <= 1
 0 <= y(2,0,1) <= 1
 0 <= v(0,2,1)p <= 22
 0 <= v(0,2,1)n <= 36
 0 <= v(2,0,1)p <= 22
 0 <= v(2,0,1)n <= 36
 0 <= u(0,2,1)p <= 440
 0 <= u(0,2,1)n <= 440
 0 <= u(2,0,1)p <= 440
 0 <= u(2,0,1)n <= 440
 0 <= x(1,1) <= 30
 0 <= y(1,2,1) <= 1
 0 <= y(2,1,1) <= 1
 0 <= v(1,2,1)p <= 23
 0 <= v(1,2,1)n <= 36
 0 <= v(2,1,1)p <= 25
 0 <= v(2,1,1)n <= 34
 0 <= u(1,2,1)p <= 440
 0 <= u(1,2,1)n <= 440
 0 <= u(2,1,1)p <= 440
 0 <= u(2,1,1)n <= 440
 0 <= x(2,1) <= 29
 7 <= x(0,2) <= 36
 0 <= y(0,1,2) <= 1
 0 <= y(1,0,2) <= 1
 0 <= v(0,1,2)p <= 22
 0 <= v(0,1,2)n <= 37
 0 <= v(1,0,2)p <= 23
 0 <= v(1,0,2)n <= 36
 0 <= u(0,1,2)p <= 440
 0 <= u(0,1,2)n <= 440
 0 <= u(1,0,2)p <= 440
 0 <= u(1,0,2)n <= 440
 0 <= y(0,2,2) <= 1
 0 <= y(2,0,2) <= 1
 0 <= v(0,2,2)p <= 23
 0 <= v(0,2,2)n <= 35
 0 <= v(2,0,2)p <= 22
 0 <= v(2,0,2)n <= 36
 0 <= u(0,2,2)p <= 440
 0 <= u(0,2,2)n <= 440
 0 <= u(2,0,2)p <= 440
 0 <= u(2,0,2)n <= 440
 7 <= x(1,2) <= 37
 0 <= y(1,2,2) <= 1
 0 <= y(2,1,2) <= 1
 0 <= v(1,2,2)p <= 24
 0 <= v(1,2,2)n <= 35
 0 <= v(2,1,2)p <= 22
 0 <= v(2,1,2)n <= 37
 0 <= u(1,2,2)p <= 440
 0 <= u(1,2,2)n <= 440
 0 <= u(2,1,2)p <= 440
 0 <= u(2,1,2)n <= 440
 7 <= x(2,2) <= 36
End
